NAME: tsp30-14
TYPE: TSP
DIMENSION: 30
EDGE_WEIGHT_TYPE: EUC_2D
NODE_COORD_SECTION
0 45 71
1 12 61
2 65 54
3 6 70
4 11 55
5 77 63
6 23 42
7 2 74
8 76 20
9 10 19
10 94 16
11 8 74
12 59 40
13 17 86
14 8 40
15 75 72
16 82 87
17 21 74
18 41 69
19 16 25
20 21 61
21 66 34
22 16 42
23 10 77
24 24 41
25 43 6
26 34 7
27 0 27
28 60 49
29 61 22
EOF